20	5
0	10	10	2	8	6	7	1	5	4	3	9
1	4	12	15	14	20
2	4	12	13	17	16
3	3	11	16	12
4	4	13	16	12	11
5	3	12	20	11
6	3	17	16	14
7	3	16	15	17
8	3	12	17	19
9	7	15	18	13	19	20	14	16
10	2	19	17
11	1	14
12	1	21
13	1	21
14	1	21
15	1	21
16	1	21
17	1	21
18	1	21
19	1	21
20	1	21
21	0
0	0	0	0	0	0	0
1	5	5	4	0	1	4
2	7	5	1	1	4	5
3	9	1	1	2	5	2
4	10	3	4	3	1	2
5	8	1	4	5	5	3
6	10	1	0	0	0	0
7	5	4	3	3	5	1
8	7	4	0	0	2	5
9	1	1	1	0	0	1
10	10	1	3	0	4	5
11	7	5	2	1	5	5
12	9	4	1	3	1	3
13	6	4	0	4	4	3
14	3	5	5	4	4	0
15	3	3	2	0	1	1
16	4	0	0	0	5	1
17	10	0	2	4	2	0
18	1	0	0	0	0	3
19	6	1	4	3	5	4
20	2	0	3	0	4	0
21	0	0	0	0	0	0
5	5	5	5	5
